n_res = 4;
rcap = [21, 19, 36, 73];
rtype = [1, 1, 2, 2];
n_tasks = 16;
modes = [ {1, 2}, {3, 4}, {5, 6}, {7, 8}, {9, 10}, {11, 12}, {13, 14}, {15, 16}, {17, 18}, {19, 20}, {21, 22}, {23, 24}, {25, 26}, {27, 28}, {29, 30}, {31, 32} ];
succ = [ {5, 8, 14}, {4, 6, 7}, {8, 9, 11}, {8, 14}, {7}, {10, 11, 14}, {9, 11}, {10, 12}, {10, 12}, {13, 16}, {12, 15}, {16}, {15}, {}, {}, {} ];
n_opt = 32;
dur = [1, 9, 7, 8, 6, 8, 1, 9, 3, 8, 1, 5, 1, 3, 3, 6, 1, 4, 4, 8, 8, 9, 4, 9, 1, 10, 8, 10, 8, 10, 1, 10];
rreq = [|  8,  7,  8,  8,  5,  3,  8,  6,  7,  2,  8,  8,  5,  4, 10,  8,  9,  4,  8,  8,  8,  4, 10,  9,  8,  6,  6,  4,  7,  5,  9,  7
        |  2,  1,  6,  2, 10,  2,  6,  4,  5,  4,  9,  7,  7,  7,  5,  4, 10,  9,  2,  2,  4,  1,  2,  2,  8,  6, 10,  2,  6,  4,  9,  9
        |  0,  0,  0,  0,  6,  0,  6,  0,  3,  0,  0,  5,  0,  0,  0,  8,  4,  0,  0,  3,  0,  0,  5,  4,  5,  0,  0,  1,  0,  0,  0,  0
        |  3,  3,  6,  4,  0,  8,  0,  3,  0,  7,  6,  0,  4,  2,  7,  0,  0,  4,  6,  0, 10,  4,  0,  0,  0,  6,  5,  0,  4,  4,  9,  9 |];
